
Gurobi 8.1.0 (win64, Python) logging started 11/11/19 15:55:28

Academic license - for non-commercial use only

Gurobi 8.1.0 (win64, Python) logging started 11/11/19 17:21:10

Academic license - for non-commercial use only

Gurobi 8.1.0 (win64, Python) logging started 11/11/19 17:22:59

Academic license - for non-commercial use only

Gurobi 8.1.0 (win64, Python) logging started 11/11/19 17:56:42

Academic license - for non-commercial use only

Gurobi 8.1.0 (win64, Python) logging started 11/11/19 18:00:38

Academic license - for non-commercial use only

Gurobi 8.1.0 (win64, Python) logging started 11/11/19 18:03:43

Academic license - for non-commercial use only

Gurobi 8.1.0 (win64, Python) logging started 11/11/19 18:10:22

Academic license - for non-commercial use only

Gurobi 8.1.0 (win64, Python) logging started 11/11/19 19:22:26

Academic license - for non-commercial use only

Gurobi 8.1.0 (win64, Python) logging started 11/12/19 18:44:04

Academic license - for non-commercial use only

Gurobi 8.1.0 (win64, Python) logging started 11/13/19 10:55:33

Academic license - for non-commercial use only

Gurobi 8.1.0 (win64, Python) logging started 11/18/19 13:31:13

Academic license - for non-commercial use only

Gurobi 8.1.0 (win64, Python) logging started 11/19/19 15:58:48

Academic license - for non-commercial use only

Gurobi 8.1.0 (win64, Python) logging started 11/19/19 17:04:56

Academic license - for non-commercial use only

Gurobi 8.1.0 (win64, Python) logging started 11/22/19 10:08:08

Academic license - for non-commercial use only

Gurobi 8.1.0 (win64, Python) logging started 11/22/19 18:32:03

Academic license - for non-commercial use only

Gurobi 8.1.0 (win64, Python) logging started 11/22/19 18:41:51

Academic license - for non-commercial use only

Gurobi 8.1.0 (win64, Python) logging started 11/22/19 18:44:21

Academic license - for non-commercial use only

Gurobi 8.1.0 (win64, Python) logging started 11/22/19 18:50:24

Academic license - for non-commercial use only

Gurobi 8.1.0 (win64, Python) logging started 11/22/19 18:53:11

Academic license - for non-commercial use only

Gurobi 8.1.0 (win64, Python) logging started 11/22/19 18:54:57

Academic license - for non-commercial use only

Gurobi 8.1.0 (win64, Python) logging started 11/25/19 10:41:43

Academic license - for non-commercial use only

Gurobi 8.1.0 (win64, Python) logging started 11/25/19 10:59:56

Academic license - for non-commercial use only

Gurobi 8.1.0 (win64, Python) logging started 11/25/19 16:35:40

Academic license - for non-commercial use only

Gurobi 8.1.0 (win64, Python) logging started 11/25/19 22:27:27

Academic license - for non-commercial use only

Gurobi 8.1.0 (win64, Python) logging started 11/26/19 10:04:40

Academic license - for non-commercial use only

Gurobi 8.1.0 (win64, Python) logging started 11/26/19 18:27:57

Academic license - for non-commercial use only

Gurobi 8.1.0 (win64, Python) logging started 12/08/19 11:51:49

Academic license - for non-commercial use only

Gurobi 8.1.0 (win64, Python) logging started 02/05/20 17:32:21


Gurobi 8.1.0 (win64, Python) logging started 02/05/20 17:35:45

Academic license - for non-commercial use only

Gurobi 8.1.0 (win64, Python) logging started 02/05/20 18:03:09

Academic license - for non-commercial use only
